[2026-03-24T13:36:54.492Z] Pipeline "set_vm-3-t1_vm-3-t1_s006_g003" → 2026_03_24_13_36_54_set_vm-3-t1_vm-3-t1_s006_g003_max.sol
Set parameter Username
Set parameter LicenseID to value 2796068
Set parameter LogFile to value "gurobi.log"
Using license file /opt/gurobi/gurobi.lic
Academic license - for non-commercial use only - expires 2027-03-23

Gurobi Optimizer version 13.0.1 build v13.0.1rc0 (linux64 - "Ubuntu 24.04.4 LTS")
Copyright (c) 2026, Gurobi Optimization, LLC

Warning: Duplicate section found (read 'binary') - Is a variable name equal to an LP file format keyword?
Warning: Duplicate section found (read 'binary') - Is a variable name equal to an LP file format keyword?
Warning: Duplicate section found (read 'binary') - Is a variable name equal to an LP file format keyword?
Warning: Duplicate section found (read 'binary') - Is a variable name equal to an LP file format keyword?
Warning: Duplicate section found (read 'binary') - Is a variable name equal to an LP file format keyword?
Warning: Duplicate section found (read 'binary') - Is a variable name equal to an LP file format keyword?
Warning: Duplicate section found (read 'binary') - Is a variable name equal to an LP file format keyword?
Warning: Duplicate section found (read 'binary') - Is a variable name equal to an LP file format keyword?
Warning: Duplicate section found (read 'binary') - Is a variable name equal to an LP file format keyword?
Warning: Duplicate section found (read 'binary') - Is a variable name equal to an LP file format keyword?
Warning: Further warnings of this type will be omitted.
Read LP format model from file /root/bgw/data/uploads/2026_03_24_13_36_54_set_vm-3-t1_vm-3-t1_s006_g003_max.lp
Reading time = 0.00 seconds
: 1408 rows, 189 columns, 4225 nonzeros

Using Gurobi shared library /opt/gurobi1301/linux64/lib/libgurobi.so.13.0.1

CPU model: AMD EPYC-Genoa Processor, instruction set [SSE2|AVX|AVX2|AVX512]
Thread count: 16 physical cores, 16 logical processors, using up to 16 threads

Optimize a model with 1408 rows, 189 columns and 4225 nonzeros (Max)
Model fingerprint: 0x9e7d0553
Model has 20 linear objective coefficients
Variable types: 36 continuous, 153 integer (153 binary)
Coefficient statistics:
  Matrix range     [1e+00, 2e+01]
  Objective range  [1e+00, 1e+00]
  Bounds range     [1e+00, 1e+00]
  RHS range        [1e+00, 2e+01]

Found heuristic solution: objective 20.0000000
Presolve removed 256 rows and 50 columns
Presolve time: 0.00s
Presolved: 1152 rows, 139 columns, 3534 nonzeros
Variable types: 0 continuous, 139 integer (133 binary)
Found heuristic solution: objective 27.0000000

Root relaxation: objective 1.050000e+02, 87 iterations, 0.00 seconds (0.00 work units)

    Nodes    |    Current Node    |     Objective Bounds      |     Work
 Expl Unexpl |  Obj  Depth IntInf | Incumbent    BestBd   Gap | It/Node Time

     0     0  105.00000    0   14   27.00000  105.00000   289%     -    0s
H    0     0                      40.0000000  105.00000   162%     -    0s
H    0     0                      44.0000000  105.00000   139%     -    0s
H    0     0                      47.0000000  105.00000   123%     -    0s
H    0     0                      49.0000000  105.00000   114%     -    0s
H    0     0                      50.0000000  105.00000   110%     -    0s
     0     0  105.00000    0   20   50.00000  105.00000   110%     -    0s
H    0     0                      51.0000000  105.00000   106%     -    0s
H    0     0                      52.0000000  105.00000   102%     -    0s
H    0     0                      53.0000000  105.00000  98.1%     -    0s
     0     0  105.00000    0   20   53.00000  105.00000  98.1%     -    0s
     0     0  105.00000    0   14   53.00000  105.00000  98.1%     -    0s
H    0     0                      55.0000000  105.00000  90.9%     -    0s
     0     0  105.00000    0   20   55.00000  105.00000  90.9%     -    0s
     0     0  105.00000    0   14   55.00000  105.00000  90.9%     -    0s
     0     0  105.00000    0   19   55.00000  105.00000  90.9%     -    0s
     0     0  105.00000    0   14   55.00000  105.00000  90.9%     -    0s
     0     0  105.00000    0   20   55.00000  105.00000  90.9%     -    0s
     0     0  105.00000    0   18   55.00000  105.00000  90.9%     -    0s
     0     0  102.00000    0   18   55.00000  102.00000  85.5%     -    0s
     0     0  102.00000    0   14   55.00000  102.00000  85.5%     -    0s
     0     0   98.00000    0   14   55.00000   98.00000  78.2%     -    0s
     0     0   98.00000    0   14   55.00000   98.00000  78.2%     -    0s
     0     2   98.00000    0   14   55.00000   98.00000  78.2%     -    0s

Cutting planes:
  Cover: 36
  Inf proof: 40
  Zero half: 1

Explored 4346 nodes (135632 simplex iterations) in 0.50 seconds (0.74 work units)
Thread count was 16 (of 16 available processors)

Solution count 10: 55 53 52 ... 27

Optimal solution found (tolerance 1.00e-04)
Best objective 5.500000000000e+01, best bound 5.500000000000e+01, gap 0.0000%

Wrote result file '/root/bgw/data/results/2026_03_24_13_36_54_set_vm-3-t1_vm-3-t1_s006_g003_max.sol'

